encoding rcpsp/j60.sm/j6035_5.sm nv: 188360 nc: 435631 enctime: 4.89
encoding rcpsp/j60.sm/j6035_5.sm nv: 45428 nc: 103069 enctime: 1.02
c File: j6035_5.smnaive.wcnf
c optimal
c final solution cost: 76
c CPU time: 0.985216
s OPTIMUM FOUND

c File: j6035_5.sm.wcnf
c optimal
c final solution cost: 76
c CPU time: 0.118289
s OPTIMUM FOUND


encoding rcpsp/j60.sm/j6035_6.sm nv: 141699 nc: 331721 enctime: 3.51
encoding rcpsp/j60.sm/j6035_6.sm nv: 42018 nc: 96679 enctime: 0.60
c File: j6035_6.smnaive.wcnf
c optimal
c final solution cost: 79
c CPU time: 0.784672
s OPTIMUM FOUND

c File: j6035_6.sm.wcnf
c optimal
c final solution cost: 79
c CPU time: 0.195738
s OPTIMUM FOUND


encoding rcpsp/j60.sm/j6035_7.sm nv: 147420 nc: 346338 enctime: 3.90
encoding rcpsp/j60.sm/j6035_7.sm nv: 33670 nc: 77088 enctime: 0.35
c File: j6035_7.smnaive.wcnf
c optimal
c final solution cost: 73
c CPU time: 1.155297
s OPTIMUM FOUND

c File: j6035_7.sm.wcnf
c optimal
c final solution cost: 73
c CPU time: 0.138335
s OPTIMUM FOUND


encoding rcpsp/j60.sm/j6035_8.sm nv: 179000 nc: 426278 enctime: 5.07
encoding rcpsp/j60.sm/j6035_8.sm nv: 41500 nc: 96553 enctime: 0.47
c File: j6035_8.smnaive.wcnf
c optimal
c final solution cost: 78
c CPU time: 1.045256
s OPTIMUM FOUND

c File: j6035_8.sm.wcnf
c optimal
c final solution cost: 78
c CPU time: 0.222704
s OPTIMUM FOUND


encoding rcpsp/j60.sm/j6035_9.sm nv: 143231 nc: 335562 enctime: 3.48
encoding rcpsp/j60.sm/j6035_9.sm nv: 35471 nc: 81162 enctime: 0.50
c File: j6035_9.smnaive.wcnf
c optimal
c final solution cost: 76
c CPU time: 1.030528
s OPTIMUM FOUND

c File: j6035_9.sm.wcnf
c optimal
c final solution cost: 76
c CPU time: 0.132217
s OPTIMUM FOUND


encoding rcpsp/j60.sm/j603_5.sm nv: 225896 nc: 510225 enctime: 4.94
encoding rcpsp/j60.sm/j603_5.sm nv: 51340 nc: 113717 enctime: 0.86
c File: j603_5.smnaive.wcnf
c optimal
c final solution cost: 83
c CPU time: 0.895811
s OPTIMUM FOUND

c File: j603_5.sm.wcnf
c optimal
c final solution cost: 83
c CPU time: 0.107144
s OPTIMUM FOUND


encoding rcpsp/j60.sm/j6036_10.sm nv: 167660 nc: 389731 enctime: 4.14
encoding rcpsp/j60.sm/j6036_10.sm nv: 39390 nc: 89503 enctime: 0.54
c File: j6036_10.smnaive.wcnf
c optimal
c final solution cost: 77
c CPU time: 1.092506
s OPTIMUM FOUND

c File: j6036_10.sm.wcnf
c optimal
c final solution cost: 77
c CPU time: 0.136694
s OPTIMUM FOUND


encoding rcpsp/j60.sm/j6036_1.sm nv: 154143 nc: 344774 enctime: 3.84
encoding rcpsp/j60.sm/j6036_1.sm nv: 32178 nc: 70294 enctime: 0.78
c File: j6036_1.smnaive.wcnf
c optimal
c final solution cost: 61
c CPU time: 0.724948
s OPTIMUM FOUND

c File: j6036_1.sm.wcnf
c optimal
c final solution cost: 61
c CPU time: 0.063266
s OPTIMUM FOUND


encoding rcpsp/j60.sm/j6036_2.sm nv: 176346 nc: 390140 enctime: 4.01
encoding rcpsp/j60.sm/j6036_2.sm nv: 44232 nc: 96175 enctime: 0.62
c File: j6036_2.smnaive.wcnf
c optimal
c final solution cost: 75
c CPU time: 0.764701
s OPTIMUM FOUND

c File: j6036_2.sm.wcnf
c optimal
c final solution cost: 75
c CPU time: 0.145452
s OPTIMUM FOUND


encoding rcpsp/j60.sm/j6036_3.sm nv: 165376 nc: 377958 enctime: 4.21
encoding rcpsp/j60.sm/j6036_3.sm nv: 41984 nc: 94060 enctime: 0.57
c File: j6036_3.smnaive.wcnf
c optimal
c final solution cost: 81
c CPU time: 1.021395
s OPTIMUM FOUND

c File: j6036_3.sm.wcnf
c optimal
c final solution cost: 81
c CPU time: 0.091692
s OPTIMUM FOUND


encoding rcpsp/j60.sm/j6036_4.sm nv: 192864 nc: 434334 enctime: 4.66
encoding rcpsp/j60.sm/j6036_4.sm nv: 50568 nc: 111990 enctime: 0.68
c File: j6036_4.smnaive.wcnf
c optimal
c final solution cost: 85
c CPU time: 1.107572
s OPTIMUM FOUND

c File: j6036_4.sm.wcnf
c optimal
c final solution cost: 85
c CPU time: 0.173227
s OPTIMUM FOUND


encoding rcpsp/j60.sm/j6036_5.sm nv: 143136 nc: 318644 enctime: 3.62
encoding rcpsp/j60.sm/j6036_5.sm nv: 29232 nc: 63490 enctime: 0.39
c File: j6036_5.smnaive.wcnf
c optimal
c final solution cost: 57
c CPU time: 0.668927
s OPTIMUM FOUND

c File: j6036_5.sm.wcnf
c optimal
c final solution cost: 57
c CPU time: 0.057935
s OPTIMUM FOUND


encoding rcpsp/j60.sm/j6036_6.sm nv: 183574 nc: 425093 enctime: 4.23
encoding rcpsp/j60.sm/j6036_6.sm nv: 40502 nc: 91621 enctime: 0.42
c File: j6036_6.smnaive.wcnf
c optimal
c final solution cost: 76
c CPU time: 1.095780
s OPTIMUM FOUND

c File: j6036_6.sm.wcnf
c optimal
c final solution cost: 76
c CPU time: 0.095963
s OPTIMUM FOUND


encoding rcpsp/j60.sm/j6036_7.sm nv: 261405 nc: 570145 enctime: 5.86
encoding rcpsp/j60.sm/j6036_7.sm nv: 56520 nc: 121225 enctime: 0.72
c File: j6036_7.smnaive.wcnf
c optimal
c final solution cost: 71
c CPU time: 1.272030
s OPTIMUM FOUND

c File: j6036_7.sm.wcnf
c optimal
c final solution cost: 71
c CPU time: 0.121765
s OPTIMUM FOUND


encoding rcpsp/j60.sm/j6036_8.sm nv: 211344 nc: 470028 enctime: 5.06
encoding rcpsp/j60.sm/j6036_8.sm nv: 44030 nc: 95766 enctime: 0.75
c File: j6036_8.smnaive.wcnf
c optimal
c final solution cost: 69
c CPU time: 0.915506
s OPTIMUM FOUND

c File: j6036_8.sm.wcnf
c optimal
c final solution cost: 69
c CPU time: 0.116863
s OPTIMUM FOUND


encoding rcpsp/j60.sm/j6036_9.sm nv: 204585 nc: 462894 enctime: 5.18
encoding rcpsp/j60.sm/j6036_9.sm nv: 51591 nc: 114594 enctime: 1.03
c File: j6036_9.smnaive.wcnf
c optimal
c final solution cost: 86
c CPU time: 0.924205
s OPTIMUM FOUND

c File: j6036_9.sm.wcnf
c optimal
c final solution cost: 86
c CPU time: 0.107903
s OPTIMUM FOUND


encoding rcpsp/j60.sm/j603_6.sm nv: 191664 nc: 437274 enctime: 4.12
encoding rcpsp/j60.sm/j603_6.sm nv: 31680 nc: 70038 enctime: 0.30
c File: j603_6.smnaive.wcnf
c optimal
c final solution cost: 57
c CPU time: 0.888661
s OPTIMUM FOUND

c File: j603_6.sm.wcnf
c optimal
c final solution cost: 57
c CPU time: 0.098877
s OPTIMUM FOUND


encoding rcpsp/j60.sm/j6037_10.sm nv: 343046 nc: 743045 enctime: 7.03
encoding rcpsp/j60.sm/j6037_10.sm nv: 111666 nc: 240035 enctime: 1.36
c File: j6037_10.smnaive.wcnf
c optimal
c final solution cost: 96
c CPU time: 8.120051
s OPTIMUM FOUND

c File: j6037_10.sm.wcnf
c optimal
c final solution cost: 96
c CPU time: 3.147812
s OPTIMUM FOUND


encoding rcpsp/j60.sm/j6037_1.sm nv: 270298 nc: 580553 enctime: 5.21
encoding rcpsp/j60.sm/j6037_1.sm nv: 96086 nc: 204969 enctime: 1.19
c File: j6037_1.smnaive.wcnf
c optimal
c final solution cost: 97
c CPU time: 22.736779
s OPTIMUM FOUND

c File: j6037_1.sm.wcnf
c optimal
c final solution cost: 97
c CPU time: 8.393030
s OPTIMUM FOUND


encoding rcpsp/j60.sm/j6037_2.sm nv: 295883 nc: 630505 enctime: 5.75
encoding rcpsp/j60.sm/j6037_2.sm nv: 114028 nc: 241635 enctime: 2.31
c File: j6037_2.smnaive.wcnf
c optimal
c final solution cost: 95
c CPU time: 55.165638
s OPTIMUM FOUND

c File: j6037_2.sm.wcnf
c timeout
c final solution cost: 95
c CPU time: 60.210794
s UNKNOWN


encoding rcpsp/j60.sm/j6037_3.sm nv: 323008 nc: 733136 enctime: 7.88
encoding rcpsp/j60.sm/j6037_3.sm nv: 128544 nc: 289692 enctime: 1.71
c File: j6037_3.smnaive.wcnf
c timeout
c final solution cost: 139
c CPU time: 61.234001
s UNKNOWN

c File: j6037_3.sm.wcnf
c timeout
c final solution cost: 140
c CPU time: 60.298862
s UNKNOWN


encoding rcpsp/j60.sm/j6037_4.sm nv: 313292 nc: 680386 enctime: 6.53
encoding rcpsp/j60.sm/j6037_4.sm nv: 114436 nc: 246846 enctime: 1.62
c File: j6037_4.smnaive.wcnf
c optimal
c final solution cost: 101
c CPU time: 28.685288
s OPTIMUM FOUND

c File: j6037_4.sm.wcnf
c optimal
c final solution cost: 101
c CPU time: 7.182995
s OPTIMUM FOUND


encoding rcpsp/j60.sm/j6037_5.sm nv: 258096 nc: 559187 enctime: 5.30
encoding rcpsp/j60.sm/j6037_5.sm nv: 95937 nc: 206410 enctime: 1.35
c File: j6037_5.smnaive.wcnf
c optimal
c final solution cost: 98
c CPU time: 13.234027
s OPTIMUM FOUND

c File: j6037_5.sm.wcnf
c optimal
c final solution cost: 98
c CPU time: 4.969877
s OPTIMUM FOUND


encoding rcpsp/j60.sm/j6037_6.sm nv: 337978 nc: 736013 enctime: 7.67
encoding rcpsp/j60.sm/j6037_6.sm nv: 125646 nc: 271891 enctime: 1.70
c File: j6037_6.smnaive.wcnf
c timeout
c final solution cost: 102
c CPU time: 61.297595
s UNKNOWN

c File: j6037_6.sm.wcnf
c timeout
c final solution cost: 108
c CPU time: 60.369354
s UNKNOWN


encoding rcpsp/j60.sm/j6037_7.sm nv: 306588 nc: 675422 enctime: 6.72
encoding rcpsp/j60.sm/j6037_7.sm nv: 113649 nc: 248591 enctime: 1.66
c File: j6037_7.smnaive.wcnf
c timeout
c final solution cost: 115
c CPU time: 61.007543
s UNKNOWN

c File: j6037_7.sm.wcnf
c timeout
c final solution cost: 110
c CPU time: 60.242008
s UNKNOWN


encoding rcpsp/j60.sm/j6037_8.sm nv: 287295 nc: 623353 enctime: 6.11
encoding rcpsp/j60.sm/j6037_8.sm nv: 91290 nc: 196303 enctime: 1.14
c File: j6037_8.smnaive.wcnf
c optimal
c final solution cost: 93
c CPU time: 6.120490
s OPTIMUM FOUND

c File: j6037_8.sm.wcnf
c optimal
c final solution cost: 93
c CPU time: 3.365312
s OPTIMUM FOUND


encoding rcpsp/j60.sm/j6037_9.sm nv: 325205 nc: 706464 enctime: 7.48
encoding rcpsp/j60.sm/j6037_9.sm nv: 107115 nc: 230960 enctime: 1.39
c File: j6037_9.smnaive.wcnf
c optimal
c final solution cost: 96
c CPU time: 23.096590
s OPTIMUM FOUND

c File: j6037_9.sm.wcnf
c optimal
c final solution cost: 96
c CPU time: 31.019853
s OPTIMUM FOUND


encoding rcpsp/j60.sm/j603_7.sm nv: 180752 nc: 397169 enctime: 4.05
encoding rcpsp/j60.sm/j603_7.sm nv: 34320 nc: 73585 enctime: 0.33
c File: j603_7.smnaive.wcnf
c optimal
c final solution cost: 59
c CPU time: 1.064958
s OPTIMUM FOUND

c File: j603_7.sm.wcnf
c optimal
c final solution cost: 59
c CPU time: 0.072517
s OPTIMUM FOUND


encoding rcpsp/j60.sm/j6038_10.sm nv: 491508 nc: 1025392 enctime: 9.21
encoding rcpsp/j60.sm/j6038_10.sm nv: 100368 nc: 207337 enctime: 1.22
c File: j6038_10.smnaive.wcnf
c optimal
c final solution cost: 66
c CPU time: 3.257884
s OPTIMUM FOUND

c File: j6038_10.sm.wcnf
c optimal
c final solution cost: 66
c CPU time: 0.823641
s OPTIMUM FOUND


encoding rcpsp/j60.sm/j6038_1.sm nv: 495558 nc: 1037900 enctime: 9.51
encoding rcpsp/j60.sm/j6038_1.sm nv: 118818 nc: 246720 enctime: 1.44
c File: j6038_1.smnaive.wcnf
c optimal
c final solution cost: 73
c CPU time: 1.778210
s OPTIMUM FOUND

c File: j6038_1.sm.wcnf
c optimal
c final solution cost: 73
c CPU time: 0.458912
s OPTIMUM FOUND


encoding rcpsp/j60.sm/j6038_2.sm nv: 517275 nc: 1098043 enctime: 10.57
encoding rcpsp/j60.sm/j6038_2.sm nv: 118275 nc: 248803 enctime: 1.47
c File: j6038_2.smnaive.wcnf
c optimal
c final solution cost: 76
c CPU time: 18.867792
s OPTIMUM FOUND

c File: j6038_2.sm.wcnf
c optimal
c final solution cost: 76
c CPU time: 6.751297
s OPTIMUM FOUND


encoding rcpsp/j60.sm/j6038_3.sm nv: 472905 nc: 992182 enctime: 9.26
encoding rcpsp/j60.sm/j6038_3.sm nv: 118575 nc: 246692 enctime: 2.03
c File: j6038_3.smnaive.wcnf
c optimal
c final solution cost: 77
c CPU time: 2.496471
s OPTIMUM FOUND

c File: j6038_3.sm.wcnf
c optimal
c final solution cost: 77
c CPU time: 0.338287
s OPTIMUM FOUND


encoding rcpsp/j60.sm/j6038_4.sm nv: 406477 nc: 846409 enctime: 7.92
encoding rcpsp/j60.sm/j6038_4.sm nv: 81034 nc: 166888 enctime: 1.02
c File: j6038_4.smnaive.wcnf
c optimal
c final solution cost: 58
c CPU time: 2.301094
s OPTIMUM FOUND

c File: j6038_4.sm.wcnf
c optimal
c final solution cost: 58
c CPU time: 0.236808
s OPTIMUM FOUND


encoding rcpsp/j60.sm/j6038_5.sm nv: 370359 nc: 782287 enctime: 7.49
encoding rcpsp/j60.sm/j6038_5.sm nv: 125388 nc: 263227 enctime: 1.97
c File: j6038_5.smnaive.wcnf
c optimal
c final solution cost: 103
c CPU time: 1.817708
s OPTIMUM FOUND

c File: j6038_5.sm.wcnf
c optimal
c final solution cost: 103
c CPU time: 0.337436
s OPTIMUM FOUND


encoding rcpsp/j60.sm/j6038_6.sm nv: 424152 nc: 902675 enctime: 8.31
encoding rcpsp/j60.sm/j6038_6.sm nv: 118368 nc: 249939 enctime: 1.94
c File: j6038_6.smnaive.wcnf
c optimal
c final solution cost: 86
c CPU time: 1.634393
s OPTIMUM FOUND

c File: j6038_6.sm.wcnf
c optimal
c final solution cost: 86
c CPU time: 0.444389
s OPTIMUM FOUND


encoding rcpsp/j60.sm/j6038_7.sm nv: 499488 nc: 1046447 enctime: 9.43
encoding rcpsp/j60.sm/j6038_7.sm nv: 116160 nc: 241247 enctime: 1.46
c File: j6038_7.smnaive.wcnf
c optimal
c final solution cost: 74
c CPU time: 1.953377
s OPTIMUM FOUND

c File: j6038_7.sm.wcnf
c optimal
c final solution cost: 74
c CPU time: 0.321785
s OPTIMUM FOUND


encoding rcpsp/j60.sm/j6038_8.sm nv: 477192 nc: 1008759 enctime: 9.10
encoding rcpsp/j60.sm/j6038_8.sm nv: 101100 nc: 211377 enctime: 1.24
c File: j6038_8.smnaive.wcnf
c optimal
c final solution cost: 71
c CPU time: 6.709303
s OPTIMUM FOUND

c File: j6038_8.sm.wcnf
c optimal
c final solution cost: 71
c CPU time: 0.370213
s OPTIMUM FOUND


encoding rcpsp/j60.sm/j6038_9.sm nv: 413512 nc: 854999 enctime: 7.35
encoding rcpsp/j60.sm/j6038_9.sm nv: 97790 nc: 200503 enctime: 1.18
c File: j6038_9.smnaive.wcnf
c optimal
c final solution cost: 66
c CPU time: 2.130724
s OPTIMUM FOUND

c File: j6038_9.sm.wcnf
c optimal
c final solution cost: 66
c CPU time: 0.226823
s OPTIMUM FOUND


encoding rcpsp/j60.sm/j603_8.sm nv: 158543 nc: 353133 enctime: 3.70
encoding rcpsp/j60.sm/j603_8.sm nv: 29820 nc: 64607 enctime: 0.40
c File: j603_8.smnaive.wcnf
c optimal
c final solution cost: 55
c CPU time: 1.422060
s OPTIMUM FOUND

c File: j603_8.sm.wcnf
c optimal
c final solution cost: 55
c CPU time: 0.093697
s OPTIMUM FOUND


encoding rcpsp/j60.sm/j6039_10.sm nv: 492328 nc: 1019496 enctime: 9.02
encoding rcpsp/j60.sm/j6039_10.sm nv: 116850 nc: 240102 enctime: 1.57
c File: j6039_10.smnaive.wcnf
c optimal
c final solution cost: 74
c CPU time: 1.677982
s OPTIMUM FOUND

c File: j6039_10.sm.wcnf
c optimal
c final solution cost: 74
c CPU time: 0.326950
s OPTIMUM FOUND


